8438
17, 21, 42, 7, 2, 30, 23, 50, 20, 29, 16, 46, 26, 47, 14, 52, 13, 27, 28, 12, 11, 51, 33, 10, 9, 8, 41, 19, 45, 43, 25, 4, 6, 5, 15, 48, 24, 38, 40, 37, 39, 44, 34, 35, 36, 49, 32, 1, 22, 31, 18, 3
